4 100 1792
7 6 5 8 3 11 8 7 9 6
4 4 3 3
3 6 5 3
8 1 6 1
4 2 6
4 6 6
0 40.0 50.0 0.0 0.0 0 240
2 25.0 85.0 10.0 20.0 145 175 83 0 0 0 0 0 0 0 1 1 0
3 22.0 75.0 10.0 30.0 50 80 46 0 0 0 0 0 1 1 1 0 0
4 22.0 85.0 10.0 10.0 109 139 10 0 0 1 1 0 0 0 0 0 0
5 20.0 80.0 10.0 40.0 141 171 19 0 0 0 0 0 1 0 0 0 0
6 20.0 85.0 10.0 20.0 41 71 83 1 0 1 0 0 0 0 0 0 0
7 18.0 75.0 10.0 20.0 95 125 10 0 0 1 0 0 0 0 0 1 0
8 15.0 75.0 10.0 20.0 79 109 91 0 1 0 1 1 0 0 0 0 1
9 15.0 80.0 10.0 10.0 91 121 47 1 1 0 1 0 0 1 0 0 0
10 10.0 35.0 10.0 20.0 91 121 22 0 0 0 0 0 1 1 0 0 0
11 10.0 40.0 10.0 30.0 119 149 43 0 0 0 0 0 1 0 0 0 0
12 8.0 40.0 10.0 40.0 59 89 24 1 0 0 0 0 1 0 1 1 0
13 8.0 45.0 10.0 20.0 64 94 29 0 0 0 1 1 0 1 0 0 0
14 5.0 35.0 10.0 10.0 142 172 65 0 1 0 0 0 1 0 0 0 0
15 5.0 45.0 10.0 10.0 35 65 46 0 0 0 0 0 0 1 0 0 1
16 2.0 40.0 10.0 20.0 58 88 45 0 1 0 0 0 0 0 1 1 0
17 0.0 40.0 10.0 20.0 72 102 43 0 0 0 1 0 0 0 0 1 0
18 0.0 45.0 10.0 20.0 149 179 86 0 0 0 0 0 1 0 0 0 0
19 44.0 5.0 10.0 20.0 87 117 67 1 0 0 1 0 0 0 0 0 0
20 42.0 10.0 10.0 40.0 72 102 11 1 0 0 0 0 1 0 0 0 0
21 42.0 15.0 10.0 10.0 122 152 66 0 0 1 0 1 0 0 0 0 0
22 40.0 5.0 10.0 10.0 67 97 35 0 0 0 0 0 0 0 0 1 1
23 40.0 15.0 10.0 40.0 92 122 82 1 1 0 0 0 0 1 0 0 0
24 38.0 5.0 10.0 30.0 65 95 1 0 0 0 0 0 0 0 0 0 1
25 38.0 15.0 10.0 10.0 148 178 35 0 0 1 0 0 0 1 1 0 0
26 35.0 5.0 10.0 20.0 154 184 88 0 1 0 0 1 1 0 0 0 0
27 95.0 30.0 10.0 30.0 115 145 4 0 0 0 0 0 0 1 0 0 0
28 95.0 35.0 10.0 20.0 62 92 71 0 1 0 0 0 0 1 0 0 0
29 92.0 30.0 10.0 10.0 62 92 1 0 0 1 0 0 0 0 0 0 0
30 90.0 35.0 10.0 10.0 67 97 3 1 0 1 0 1 0 1 0 0 0
31 88.0 30.0 10.0 10.0 74 104 80 1 1 0 0 0 0 0 0 0 0
32 88.0 35.0 10.0 20.0 61 91 12 1 1 0 0 0 0 0 1 0 0
33 87.0 30.0 10.0 10.0 131 161 73 0 0 0 0 1 1 0 1 0 0
34 85.0 25.0 10.0 10.0 51 81 48 0 0 0 0 0 0 0 0 1 0
35 85.0 35.0 10.0 30.0 111 141 36 1 0 0 1 0 0 0 0 0 0
36 67.0 85.0 10.0 20.0 139 169 84 1 0 0 0 0 0 0 1 1 0
37 65.0 85.0 10.0 40.0 43 73 96 1 0 1 1 0 1 0 0 0 1
38 65.0 82.0 10.0 10.0 124 154 12 0 0 0 0 0 0 0 0 1 0
39 62.0 80.0 10.0 30.0 75 105 34 0 0 0 0 0 1 0 0 0 0
40 60.0 80.0 10.0 10.0 37 67 11 0 1 0 0 0 0 0 0 0 0
41 60.0 85.0 10.0 30.0 85 115 81 0 0 0 0 0 1 1 0 0 0
42 58.0 75.0 10.0 20.0 92 122 5 1 0 0 0 0 1 0 1 0 0
43 55.0 80.0 10.0 10.0 33 63 45 0 0 0 0 0 0 0 0 1 0
44 55.0 85.0 10.0 20.0 128 158 70 1 0 0 0 0 0 0 0 0 0
45 55.0 82.0 10.0 10.0 64 94 79 0 1 1 0 0 1 1 0 1 0
46 20.0 82.0 10.0 10.0 37 67 47 0 0 0 0 0 0 1 0 0 0
47 18.0 80.0 10.0 10.0 113 143 81 0 1 0 1 0 0 1 0 0 0
48 2.0 45.0 10.0 10.0 45 75 72 0 0 0 1 0 0 0 0 1 0
49 42.0 5.0 10.0 10.0 151 181 22 0 0 0 0 0 0 1 0 1 0
50 42.0 12.0 10.0 10.0 104 134 15 0 0 0 0 0 1 0 0 0 0
51 72.0 35.0 10.0 30.0 116 146 34 0 0 0 0 0 0 0 0 1 1
52 55.0 20.0 10.0 19.0 83 113 34 0 1 1 1 0 0 0 0 0 0
53 25.0 30.0 10.0 3.0 52 82 44 1 0 0 0 0 0 0 0 0 0
54 20.0 50.0 10.0 5.0 91 121 41 0 0 0 0 0 1 0 0 0 0
55 55.0 60.0 10.0 16.0 139 169 26 0 0 0 0 1 0 0 0 0 0
56 30.0 60.0 10.0 16.0 140 170 35 0 0 0 0 0 1 0 0 0 0
57 50.0 35.0 10.0 19.0 130 160 34 0 0 0 0 0 1 0 0 0 0
58 30.0 25.0 10.0 23.0 96 126 29 0 0 1 0 1 0 0 1 1 1
59 15.0 10.0 10.0 20.0 152 182 61 0 0 0 1 0 1 1 0 0 0
60 10.0 20.0 10.0 19.0 42 72 98 0 0 1 0 0 1 1 0 0 0
61 15.0 60.0 10.0 17.0 155 185 85 0 0 0 0 0 0 1 0 0 0
62 45.0 65.0 10.0 9.0 66 96 14 0 0 0 0 1 0 0 0 0 0
63 65.0 35.0 10.0 3.0 52 82 83 0 0 0 1 0 0 0 0 0 0
64 65.0 20.0 10.0 6.0 39 69 57 0 0 0 0 0 1 0 0 0 0
65 45.0 30.0 10.0 17.0 53 83 71 0 1 0 0 0 0 0 0 0 0
66 35.0 40.0 10.0 16.0 11 41 99 0 0 0 0 0 1 0 0 0 0
67 41.0 37.0 10.0 16.0 133 163 61 0 0 1 1 0 0 1 0 0 1
68 64.0 42.0 10.0 9.0 70 100 92 0 0 0 0 0 0 0 0 1 0
69 40.0 60.0 10.0 21.0 144 174 59 0 0 0 0 0 1 0 0 0 0
70 31.0 52.0 10.0 27.0 41 71 79 0 0 0 0 0 1 0 0 0 0
71 35.0 69.0 10.0 23.0 180 210 36 0 0 0 0 0 0 0 1 0 0
72 65.0 55.0 10.0 14.0 65 95 16 0 1 1 0 0 0 0 0 0 0
73 63.0 65.0 10.0 8.0 30 60 38 0 0 0 0 0 0 0 1 1 0
74 2.0 60.0 10.0 5.0 77 107 48 0 0 0 0 0 0 0 0 1 0
75 20.0 20.0 10.0 8.0 141 171 75 1 0 0 0 1 0 1 1 0 1
76 5.0 5.0 10.0 16.0 74 104 79 1 0 0 0 1 0 1 0 0 0
77 60.0 12.0 10.0 31.0 75 105 47 1 0 0 0 0 0 0 0 0 0
78 23.0 3.0 10.0 7.0 150 180 88 0 0 0 0 1 1 0 0 0 1
79 8.0 56.0 10.0 27.0 90 120 4 1 0 0 0 0 0 0 0 0 0
80 6.0 68.0 10.0 30.0 89 119 49 0 0 1 0 0 0 0 0 0 0
81 47.0 47.0 10.0 13.0 192 222 38 0 0 0 0 0 0 0 0 1 1
82 49.0 58.0 10.0 10.0 86 116 88 1 0 0 0 0 1 0 0 0 0
83 27.0 43.0 10.0 9.0 42 72 54 0 0 1 1 1 0 0 0 0 0
84 37.0 31.0 10.0 14.0 35 65 11 0 0 0 1 0 1 0 0 0 0
85 57.0 29.0 10.0 18.0 96 126 56 0 0 0 0 0 1 0 0 0 0
86 63.0 23.0 10.0 2.0 87 117 7 0 0 1 0 0 0 1 0 0 0
87 21.0 24.0 10.0 28.0 87 117 46 0 0 0 0 0 1 0 0 0 0
88 12.0 24.0 10.0 13.0 90 120 48 0 0 0 1 0 0 0 0 0 0
89 24.0 58.0 10.0 19.0 67 97 83 0 0 0 0 0 1 0 0 0 0
90 67.0 5.0 10.0 25.0 144 174 50 0 1 0 1 0 0 1 0 0 0
91 37.0 47.0 10.0 6.0 86 116 0 0 1 0 0 0 1 0 0 1 1
92 49.0 42.0 10.0 13.0 167 197 9 0 0 0 0 1 1 0 0 0 0
93 53.0 43.0 10.0 14.0 14 44 66 0 0 0 0 0 0 0 0 0 1
94 61.0 52.0 10.0 3.0 178 208 75 0 0 0 0 1 0 0 0 1 0
95 57.0 48.0 10.0 23.0 95 125 10 0 0 1 0 0 0 0 0 0 0
96 56.0 37.0 10.0 6.0 34 64 95 0 0 0 0 1 0 0 1 0 0
97 55.0 54.0 10.0 26.0 132 162 17 1 1 0 0 0 0 0 1 0 0
98 4.0 18.0 10.0 35.0 120 150 55 0 0 0 0 0 0 0 1 0 0
99 26.0 52.0 10.0 9.0 46 76 1 0 0 0 0 0 0 1 0 1 0
100 26.0 35.0 10.0 15.0 77 107 56 0 0 0 0 0 0 1 1 0 0
101 31.0 67.0 10.0 3.0 180 210 59 0 0 0 1 0 1 0 0 0 0